p cnf 7230 14
3754 -4471 0
-3754 4470 -4473 0
-4474 4475 0
3760 -4473 0
-3760 4472 -4475 0
-4471 4473 0
-2062 -3762 4474 0
2062 -4475 0
-4470 4471 0
-4473 4475 0
-4472 4473 0
3762 -4475 0
-3766 4477 0
3766 -4477 0
